NAME: random_points
TYPE: TSP
DIMENSION: 16
EDGE_WEIGHT_TYPE: EUC_2D
NODE_COORD_SECTION
1 696 150
2 123 727
3 173 858
4 353 681
5 766 363
6 550 231
7 682 830
8 111 619
9 575 578
10 133 244
11 238 439
12 672 788
13 108 285
14 527 162
15 667 508
16 801 125
EOF
